jobs  (incl. supersource/sink ):	102
RESOURCES
- renewable                 : 4 R
- nonrenewable              : 2 N
- doubly constrained        : 0 D
************************************************************************
PRECEDENCE RELATIONS:
jobnr.    #modes  #successors   successors
1	1	30		2 3 4 5 6 7 8 9 10 13 14 15 16 17 18 19 20 21 22 24 25 26 27 30 31 32 33 35 37 54 
2	6	11		93 69 56 51 46 42 41 36 29 23 11 
3	6	19		101 98 70 69 67 66 65 62 61 60 56 50 49 45 44 42 36 29 28 
4	6	18		100 99 97 96 92 67 62 61 60 59 56 51 48 45 43 39 36 34 
5	6	23		101 100 99 98 97 96 95 94 89 88 69 67 66 61 60 49 47 46 45 43 40 39 36 
6	6	19		98 92 90 88 86 82 70 69 67 66 61 60 57 55 50 47 45 44 29 
7	6	6		95 69 55 47 36 12 
8	6	24		99 97 96 95 94 93 91 89 88 87 86 84 68 67 64 63 60 59 58 57 52 51 49 39 
9	6	23		101 99 97 96 95 94 92 91 89 88 84 82 81 80 67 64 63 62 59 58 49 46 44 
10	6	12		97 94 93 88 87 82 62 60 57 49 42 28 
11	6	20		99 98 97 96 95 92 89 87 85 84 70 64 63 62 61 60 59 58 57 39 
12	6	19		99 98 94 93 92 90 88 86 85 84 82 81 80 66 64 58 57 44 38 
13	6	18		97 95 94 92 90 88 86 85 84 70 68 64 61 60 59 58 44 36 
14	6	14		96 91 90 79 78 70 69 67 60 57 56 52 49 34 
15	6	21		98 97 93 92 91 89 88 87 86 83 80 79 76 74 68 66 63 59 53 49 48 
16	6	16		97 91 89 88 86 85 84 81 66 63 58 57 48 45 44 39 
17	6	20		99 98 95 93 92 91 89 87 86 85 84 81 80 73 66 63 59 58 57 39 
18	6	16		101 100 94 93 89 85 80 73 68 64 63 62 61 60 44 39 
19	6	16		100 98 90 88 85 83 82 79 77 65 64 58 57 52 47 45 
20	6	14		96 91 90 88 86 85 82 65 61 60 57 53 45 44 
21	6	15		98 96 93 91 89 88 87 86 84 80 77 68 55 46 39 
22	6	17		99 97 93 92 90 89 88 85 82 80 73 64 63 60 59 57 44 
23	6	13		100 95 94 87 85 84 82 78 63 58 57 55 40 
24	6	16		98 97 96 90 89 85 84 82 81 80 74 73 63 62 58 44 
25	6	12		91 90 86 84 79 66 63 59 57 56 51 45 
26	6	11		98 97 88 85 82 81 75 59 46 45 44 
27	6	18		97 95 93 92 85 84 83 82 81 80 79 78 75 73 71 64 59 57 
28	6	16		92 89 86 85 84 83 80 79 76 74 73 68 64 63 59 58 
29	6	15		99 97 96 89 85 84 83 80 79 78 73 64 63 59 58 
30	6	14		94 92 86 84 82 80 79 78 77 76 74 65 58 49 
31	6	12		91 88 85 82 81 80 76 75 74 73 66 44 
32	6	13		101 95 94 88 84 78 77 74 73 65 64 62 58 
33	6	9		94 88 82 79 72 63 58 57 45 
34	6	10		98 89 86 85 84 81 80 75 66 50 
35	6	12		95 94 90 89 87 82 81 80 79 74 73 61 
36	6	11		91 87 83 82 80 78 73 72 71 63 57 
37	6	11		99 98 93 92 90 84 83 76 75 74 55 
38	6	9		96 89 79 74 73 72 67 63 61 
39	6	10		90 83 82 79 78 76 74 72 71 65 
40	6	9		92 91 83 81 80 79 74 73 59 
41	6	8		91 88 85 75 72 71 67 57 
42	6	9		96 90 89 86 78 73 72 71 68 
43	6	7		82 79 78 76 74 73 58 
44	6	7		87 83 79 78 77 72 71 
45	6	7		93 80 78 76 74 73 71 
46	6	5		83 79 73 71 57 
47	6	5		91 84 81 72 63 
48	6	5		82 78 77 73 64 
49	6	5		85 75 73 72 71 
50	6	5		95 94 76 74 71 
51	6	4		83 76 74 72 
52	6	4		92 80 72 71 
53	6	4		99 84 78 72 
54	6	4		93 91 81 77 
55	6	3		81 73 71 
56	6	3		88 82 71 
57	6	2		76 74 
58	6	2		75 71 
59	6	2		77 72 
60	6	2		81 71 
61	6	2		77 71 
62	6	2		86 76 
63	6	1		75 
64	6	1		72 
65	6	1		75 
66	6	1		71 
67	6	1		77 
68	6	1		81 
69	6	1		80 
70	6	1		73 
71	6	1		102 
72	6	1		102 
73	6	1		102 
74	6	1		102 
75	6	1		102 
76	6	1		102 
77	6	1		102 
78	6	1		102 
79	6	1		102 
80	6	1		102 
81	6	1		102 
82	6	1		102 
83	6	1		102 
84	6	1		102 
85	6	1		102 
86	6	1		102 
87	6	1		102 
88	6	1		102 
89	6	1		102 
90	6	1		102 
91	6	1		102 
92	6	1		102 
93	6	1		102 
94	6	1		102 
95	6	1		102 
96	6	1		102 
97	6	1		102 
98	6	1		102 
99	6	1		102 
100	6	1		102 
101	6	1		102 
102	1	0		
************************************************************************
REQUESTS/DURATIONS
jobnr.	mode	dur	R1	R2	R3	R4	N1	N2	
------------------------------------------------------------------------
1	1	0	0	0	0	0	0	0	
2	1	8	2	4	3	2	21	17	
	2	21	2	4	3	2	20	17	
	3	25	2	4	3	2	19	15	
	4	28	2	4	3	2	19	14	
	5	29	2	4	3	2	18	14	
	6	30	2	4	3	2	18	13	
3	1	8	3	2	4	4	8	13	
	2	18	3	2	3	4	8	13	
	3	20	3	2	3	4	7	11	
	4	21	3	2	2	4	7	10	
	5	24	3	2	2	4	7	9	
	6	28	3	2	1	4	6	9	
4	1	4	2	2	2	3	24	21	
	2	8	1	1	2	3	23	20	
	3	12	1	1	2	3	18	17	
	4	21	1	1	2	2	17	11	
	5	23	1	1	2	2	11	9	
	6	28	1	1	2	1	8	7	
5	1	3	2	4	4	5	28	23	
	2	7	2	4	4	4	23	22	
	3	9	2	4	4	3	21	20	
	4	18	1	4	3	3	18	13	
	5	20	1	3	3	3	12	12	
	6	22	1	3	3	2	9	10	
6	1	1	2	4	2	4	27	15	
	2	11	2	4	2	4	27	13	
	3	13	2	3	2	4	23	12	
	4	19	2	3	2	4	23	10	
	5	21	2	2	2	4	19	9	
	6	28	2	2	2	4	18	9	
7	1	4	3	5	1	4	14	27	
	2	7	2	4	1	4	12	26	
	3	16	2	4	1	4	11	23	
	4	18	2	4	1	4	11	19	
	5	25	2	3	1	4	9	17	
	6	26	2	3	1	4	8	13	
8	1	6	4	4	2	3	23	16	
	2	8	4	4	2	3	21	14	
	3	13	4	4	2	3	19	14	
	4	14	4	4	2	3	16	12	
	5	15	4	3	2	2	15	11	
	6	17	4	3	2	2	14	10	
9	1	1	3	3	2	4	19	9	
	2	10	2	2	1	3	18	8	
	3	18	2	2	1	3	17	6	
	4	19	2	1	1	3	17	6	
	5	27	2	1	1	3	16	4	
	6	29	2	1	1	3	14	3	
10	1	10	4	2	4	4	14	2	
	2	13	3	1	3	3	13	1	
	3	14	3	1	3	3	11	1	
	4	15	2	1	3	2	10	1	
	5	22	2	1	2	1	9	1	
	6	24	2	1	2	1	8	1	
11	1	2	2	1	5	1	26	25	
	2	3	1	1	4	1	24	24	
	3	4	1	1	4	1	20	18	
	4	7	1	1	3	1	17	18	
	5	19	1	1	3	1	16	15	
	6	21	1	1	3	1	12	12	
12	1	1	5	5	2	2	21	25	
	2	10	5	4	2	2	21	22	
	3	14	5	3	2	2	21	20	
	4	15	5	2	2	2	21	19	
	5	24	5	2	2	2	21	17	
	6	27	5	1	2	2	21	16	
13	1	1	4	3	1	2	18	16	
	2	6	3	2	1	2	17	12	
	3	16	3	2	1	2	17	11	
	4	18	2	1	1	2	15	9	
	5	27	2	1	1	2	14	5	
	6	30	2	1	1	2	13	4	
14	1	12	4	2	3	3	28	16	
	2	14	4	2	2	3	26	16	
	3	15	4	2	2	3	25	14	
	4	17	3	2	2	2	22	13	
	5	21	3	2	2	1	21	10	
	6	22	3	2	2	1	19	10	
15	1	5	2	4	3	1	20	11	
	2	10	2	3	3	1	19	9	
	3	12	2	3	2	1	18	9	
	4	13	2	3	2	1	17	9	
	5	26	1	1	1	1	15	8	
	6	30	1	1	1	1	15	7	
16	1	1	2	3	4	1	28	15	
	2	14	1	2	3	1	21	13	
	3	16	1	2	3	1	17	13	
	4	23	1	2	3	1	15	13	
	5	26	1	2	3	1	11	11	
	6	28	1	2	3	1	7	11	
17	1	9	3	4	3	2	30	6	
	2	10	3	4	3	2	28	6	
	3	18	2	3	3	2	28	6	
	4	19	2	3	3	2	26	6	
	5	20	1	1	3	2	26	5	
	6	29	1	1	3	2	25	5	
18	1	6	3	1	3	4	14	17	
	2	12	3	1	3	4	14	15	
	3	13	3	1	3	4	13	13	
	4	20	3	1	2	4	11	12	
	5	23	2	1	2	4	11	9	
	6	25	2	1	1	4	10	8	
19	1	1	5	1	4	3	28	13	
	2	3	4	1	4	3	27	13	
	3	12	3	1	4	3	27	9	
	4	16	3	1	3	3	27	7	
	5	17	2	1	3	3	26	5	
	6	23	2	1	3	3	26	3	
20	1	7	3	3	4	2	15	16	
	2	11	3	3	3	2	14	15	
	3	15	3	3	3	2	11	13	
	4	17	2	3	3	2	7	9	
	5	19	2	3	2	2	7	7	
	6	29	2	3	1	2	4	4	
21	1	1	3	5	2	1	22	22	
	2	3	3	4	1	1	20	20	
	3	9	3	4	1	1	18	19	
	4	10	3	3	1	1	14	19	
	5	11	3	2	1	1	7	17	
	6	18	3	2	1	1	4	16	
22	1	3	4	2	4	4	24	14	
	2	17	3	2	4	4	17	10	
	3	20	3	2	4	4	16	8	
	4	21	2	2	4	4	10	6	
	5	25	1	2	4	3	9	4	
	6	29	1	2	4	3	2	2	
23	1	6	2	2	3	4	26	22	
	2	10	1	2	3	3	21	21	
	3	12	1	2	3	3	19	18	
	4	18	1	1	3	2	16	10	
	5	20	1	1	3	2	10	6	
	6	30	1	1	3	2	4	3	
24	1	6	2	5	5	2	23	21	
	2	11	2	5	4	1	20	18	
	3	13	2	5	4	1	19	18	
	4	14	2	5	4	1	14	15	
	5	18	2	5	4	1	10	14	
	6	24	2	5	4	1	7	11	
25	1	5	3	2	3	3	14	16	
	2	7	3	2	3	2	14	16	
	3	8	3	2	3	2	13	16	
	4	15	2	2	3	2	12	16	
	5	21	1	2	3	2	11	16	
	6	24	1	2	3	2	11	15	
26	1	4	5	5	5	2	8	28	
	2	19	4	4	4	2	8	25	
	3	21	4	4	4	2	8	20	
	4	23	3	4	4	2	8	13	
	5	24	3	3	3	2	8	8	
	6	25	3	3	3	2	8	6	
27	1	4	4	4	2	3	13	11	
	2	6	4	4	2	2	12	9	
	3	7	3	4	2	2	10	8	
	4	8	2	4	1	1	8	8	
	5	23	2	4	1	1	8	7	
	6	25	1	4	1	1	6	6	
28	1	5	1	4	5	5	22	19	
	2	9	1	3	3	4	20	17	
	3	11	1	3	3	3	20	15	
	4	15	1	2	3	2	18	13	
	5	17	1	2	1	1	18	13	
	6	24	1	2	1	1	17	11	
29	1	1	3	1	2	4	18	25	
	2	7	3	1	2	3	17	21	
	3	10	2	1	2	3	17	17	
	4	18	2	1	2	3	17	14	
	5	19	1	1	2	2	17	13	
	6	29	1	1	2	2	17	11	
30	1	1	1	4	5	2	17	25	
	2	2	1	3	5	2	15	23	
	3	15	1	3	5	2	12	21	
	4	20	1	3	5	2	12	18	
	5	24	1	3	5	1	10	16	
	6	27	1	3	5	1	7	12	
31	1	2	5	3	4	4	21	26	
	2	3	4	2	4	4	20	22	
	3	4	4	2	4	3	20	16	
	4	6	3	2	3	2	19	13	
	5	10	3	1	3	1	17	11	
	6	19	3	1	2	1	17	5	
32	1	4	5	2	3	5	11	18	
	2	16	4	2	3	4	9	13	
	3	20	4	2	3	4	8	12	
	4	24	3	2	3	3	8	9	
	5	27	3	2	2	3	6	6	
	6	30	3	2	2	2	6	2	
33	1	1	1	3	4	2	26	23	
	2	2	1	3	4	2	25	17	
	3	7	1	3	3	2	23	17	
	4	14	1	3	3	2	22	12	
	5	17	1	3	2	2	22	10	
	6	26	1	3	1	2	20	6	
34	1	1	3	4	4	5	29	25	
	2	2	3	4	3	4	27	20	
	3	12	3	4	3	3	26	19	
	4	14	3	4	3	2	25	11	
	5	17	2	4	3	2	23	9	
	6	27	2	4	3	1	22	6	
35	1	6	2	3	2	2	24	14	
	2	9	2	3	2	2	24	13	
	3	10	2	3	2	2	16	10	
	4	14	2	3	2	2	12	9	
	5	24	2	3	2	1	9	8	
	6	25	2	3	2	1	8	6	
36	1	15	2	2	5	3	10	22	
	2	19	2	1	5	3	8	21	
	3	20	2	1	5	3	7	21	
	4	22	1	1	5	3	5	20	
	5	28	1	1	5	3	5	19	
	6	29	1	1	5	3	3	20	
37	1	12	1	4	5	3	22	25	
	2	18	1	3	3	2	21	24	
	3	23	1	3	3	2	20	21	
	4	24	1	3	2	2	19	17	
	5	25	1	3	2	1	19	15	
	6	27	1	3	1	1	18	11	
38	1	9	1	4	4	5	10	23	
	2	20	1	3	3	4	9	22	
	3	22	1	3	3	3	8	22	
	4	24	1	3	2	3	7	21	
	5	25	1	3	2	3	7	20	
	6	28	1	3	1	2	5	18	
39	1	9	3	4	1	4	17	21	
	2	14	3	4	1	3	16	20	
	3	18	3	4	1	3	16	14	
	4	20	3	4	1	2	15	13	
	5	21	3	4	1	1	14	8	
	6	23	3	4	1	1	13	6	
40	1	2	5	3	1	3	19	8	
	2	3	5	3	1	3	16	7	
	3	20	5	3	1	3	16	6	
	4	27	5	2	1	3	13	4	
	5	29	5	2	1	3	12	4	
	6	30	5	2	1	3	10	3	
41	1	7	4	3	2	3	20	21	
	2	9	4	3	2	2	18	20	
	3	18	4	3	2	2	13	16	
	4	27	4	3	2	1	12	15	
	5	28	3	3	2	1	5	14	
	6	30	3	3	2	1	4	10	
42	1	2	5	2	2	4	7	17	
	2	5	4	2	2	4	7	16	
	3	7	3	2	2	3	5	15	
	4	8	3	2	1	3	5	14	
	5	9	3	2	1	1	4	11	
	6	10	2	2	1	1	3	10	
43	1	5	2	5	3	5	23	30	
	2	8	2	4	3	4	19	25	
	3	17	2	4	3	3	15	18	
	4	21	2	4	3	3	14	16	
	5	25	2	4	3	3	6	11	
	6	27	2	4	3	2	6	7	
44	1	4	3	1	3	5	23	29	
	2	8	3	1	2	4	19	25	
	3	13	3	1	2	4	16	21	
	4	16	3	1	1	4	12	19	
	5	18	2	1	1	4	10	16	
	6	24	2	1	1	4	6	16	
45	1	8	1	4	4	2	24	20	
	2	9	1	3	4	2	21	19	
	3	13	1	3	4	2	18	18	
	4	21	1	3	3	2	15	18	
	5	23	1	1	2	1	15	17	
	6	28	1	1	2	1	12	16	
46	1	5	4	4	3	3	18	28	
	2	6	3	4	3	3	15	22	
	3	9	3	4	3	3	15	21	
	4	15	2	4	3	2	14	19	
	5	18	1	4	3	2	12	16	
	6	21	1	4	3	2	11	11	
47	1	6	5	4	5	2	12	28	
	2	7	4	3	4	1	12	24	
	3	8	3	3	3	1	12	22	
	4	13	3	3	3	1	11	19	
	5	14	2	2	2	1	11	17	
	6	20	2	2	2	1	11	13	
48	1	2	3	2	4	5	25	1	
	2	7	3	1	4	4	25	2	
	3	22	3	1	4	4	25	1	
	4	23	3	1	4	3	25	1	
	5	26	3	1	4	3	24	2	
	6	28	3	1	4	3	24	1	
49	1	10	3	4	3	4	19	28	
	2	13	3	4	2	3	18	27	
	3	16	3	4	2	3	18	26	
	4	17	2	3	2	2	18	27	
	5	18	2	2	1	1	18	26	
	6	21	1	2	1	1	18	26	
50	1	1	5	5	4	5	26	5	
	2	6	4	4	3	4	20	5	
	3	12	4	4	3	4	17	4	
	4	17	3	3	3	4	13	3	
	5	23	3	2	1	3	8	2	
	6	27	2	2	1	3	5	2	
51	1	4	4	4	5	2	17	18	
	2	25	3	4	4	1	12	17	
	3	26	3	4	4	1	9	14	
	4	27	2	4	4	1	7	9	
	5	28	2	4	4	1	5	8	
	6	29	1	4	4	1	1	6	
52	1	4	3	2	5	4	10	20	
	2	6	3	2	4	4	10	17	
	3	18	3	2	3	4	10	16	
	4	19	2	2	2	3	10	15	
	5	21	2	2	1	3	10	14	
	6	29	2	2	1	3	10	12	
53	1	6	4	4	4	1	25	21	
	2	9	4	4	4	1	20	17	
	3	18	4	4	4	1	20	16	
	4	21	4	3	4	1	14	13	
	5	26	4	3	4	1	11	12	
	6	30	4	3	4	1	10	9	
54	1	1	2	4	4	3	15	6	
	2	19	2	3	4	3	13	5	
	3	20	2	3	4	3	13	4	
	4	28	2	3	3	3	12	2	
	5	29	2	3	3	3	10	1	
	6	30	2	3	3	3	9	1	
55	1	4	3	4	5	4	21	11	
	2	10	3	3	3	3	21	9	
	3	11	3	3	3	3	20	8	
	4	16	3	2	2	3	19	8	
	5	17	3	2	1	3	18	6	
	6	18	3	2	1	3	18	5	
56	1	1	4	2	4	2	7	3	
	2	6	4	2	4	2	7	2	
	3	8	4	2	4	2	6	2	
	4	13	3	2	3	2	6	1	
	5	14	3	2	3	2	5	1	
	6	18	3	2	2	2	4	1	
57	1	6	2	5	3	5	21	24	
	2	7	2	4	3	4	18	20	
	3	11	2	4	2	4	14	15	
	4	13	2	4	2	4	12	10	
	5	17	2	4	2	4	7	10	
	6	20	2	4	1	4	5	5	
58	1	13	3	2	5	5	5	7	
	2	14	2	2	5	5	5	6	
	3	15	2	2	5	5	5	5	
	4	22	2	2	5	5	5	4	
	5	24	1	2	5	5	5	4	
	6	27	1	2	5	5	5	3	
59	1	11	3	1	4	5	27	11	
	2	16	2	1	4	4	24	9	
	3	17	2	1	4	3	22	8	
	4	19	2	1	4	3	19	6	
	5	20	2	1	4	2	18	6	
	6	30	2	1	4	2	17	5	
60	1	6	4	2	4	3	16	4	
	2	9	4	2	3	2	15	3	
	3	18	4	2	3	2	11	3	
	4	19	4	2	3	1	10	2	
	5	21	4	2	3	1	8	2	
	6	29	4	2	3	1	5	1	
61	1	1	2	4	3	3	10	26	
	2	5	1	3	2	3	8	20	
	3	11	1	3	2	3	7	19	
	4	12	1	3	2	3	6	16	
	5	20	1	2	2	3	2	11	
	6	26	1	2	2	3	1	11	
62	1	9	5	4	4	5	28	13	
	2	10	4	4	4	4	27	11	
	3	14	4	4	4	3	27	11	
	4	19	4	4	3	3	26	9	
	5	25	4	4	3	1	25	9	
	6	30	4	4	2	1	25	7	
63	1	5	4	2	2	5	20	14	
	2	6	4	1	2	3	20	12	
	3	7	4	1	2	3	18	11	
	4	12	4	1	2	2	15	10	
	5	24	3	1	2	1	14	10	
	6	25	3	1	2	1	12	9	
64	1	4	2	4	1	3	17	28	
	2	8	2	4	1	3	15	24	
	3	21	2	4	1	3	14	23	
	4	26	2	4	1	2	12	20	
	5	27	2	4	1	2	11	14	
	6	30	2	4	1	2	9	12	
65	1	4	2	2	3	5	21	14	
	2	8	1	1	3	4	16	14	
	3	17	1	1	3	4	12	14	
	4	20	1	1	3	3	9	14	
	5	27	1	1	2	3	8	14	
	6	28	1	1	2	3	2	14	
66	1	4	4	4	5	5	7	28	
	2	5	3	4	4	5	7	26	
	3	6	3	4	4	5	7	24	
	4	7	2	4	3	5	7	23	
	5	8	2	4	3	5	7	21	
	6	13	1	4	3	5	7	19	
67	1	4	1	1	4	4	20	28	
	2	5	1	1	3	4	14	27	
	3	8	1	1	3	4	14	26	
	4	20	1	1	2	4	9	26	
	5	25	1	1	2	4	8	26	
	6	26	1	1	1	4	6	26	
68	1	4	5	4	3	4	16	24	
	2	8	5	3	3	3	14	24	
	3	9	5	3	3	3	13	23	
	4	18	5	2	2	3	12	23	
	5	24	5	2	2	3	12	22	
	6	25	5	2	2	3	11	22	
69	1	1	4	5	4	4	23	25	
	2	4	3	4	4	4	22	22	
	3	5	3	4	4	4	19	20	
	4	13	3	3	4	3	18	18	
	5	25	2	3	3	3	16	16	
	6	26	2	2	3	2	16	13	
70	1	7	3	1	4	4	28	25	
	2	13	3	1	3	3	27	24	
	3	16	3	1	2	3	22	18	
	4	17	3	1	2	3	21	16	
	5	24	3	1	1	2	18	8	
	6	30	3	1	1	2	16	6	
71	1	8	2	4	5	5	21	29	
	2	10	1	3	4	3	16	28	
	3	23	1	3	3	3	16	27	
	4	27	1	2	2	3	14	26	
	5	29	1	2	2	1	10	23	
	6	30	1	2	1	1	9	23	
72	1	4	5	5	5	2	16	13	
	2	9	3	4	4	2	16	13	
	3	13	3	4	4	2	16	12	
	4	14	2	3	4	2	16	13	
	5	20	2	3	3	1	15	13	
	6	21	1	2	3	1	15	13	
73	1	6	4	5	4	4	11	12	
	2	9	4	3	4	3	11	9	
	3	10	4	3	4	3	11	8	
	4	16	4	3	3	2	11	8	
	5	25	4	1	2	1	11	4	
	6	28	4	1	2	1	11	3	
74	1	10	5	5	4	4	9	26	
	2	12	5	4	4	4	9	26	
	3	15	5	4	4	3	8	26	
	4	26	5	4	4	3	6	25	
	5	28	5	4	4	3	5	25	
	6	29	5	4	4	2	4	24	
75	1	8	5	2	2	3	26	14	
	2	9	3	2	2	2	23	11	
	3	15	3	2	2	2	22	11	
	4	23	2	2	2	2	21	10	
	5	24	1	2	2	1	20	6	
	6	30	1	2	2	1	19	6	
76	1	1	4	5	2	4	19	10	
	2	15	3	3	2	3	16	10	
	3	20	3	3	2	3	14	10	
	4	24	2	3	1	3	10	10	
	5	27	1	2	1	3	6	9	
	6	29	1	1	1	3	3	9	
77	1	2	5	3	1	4	22	16	
	2	5	4	2	1	4	17	13	
	3	11	3	2	1	4	13	13	
	4	19	3	2	1	3	12	10	
	5	28	2	2	1	2	8	7	
	6	29	1	2	1	2	4	6	
78	1	1	1	4	3	3	24	14	
	2	9	1	4	2	2	20	12	
	3	17	1	4	2	2	13	8	
	4	22	1	4	2	2	11	7	
	5	23	1	4	2	2	7	6	
	6	25	1	4	2	2	5	2	
79	1	3	5	2	4	2	11	16	
	2	19	5	2	3	2	11	13	
	3	20	5	2	3	2	11	11	
	4	22	5	2	2	2	11	8	
	5	26	5	2	1	1	11	8	
	6	28	5	2	1	1	11	6	
80	1	9	2	5	4	5	18	18	
	2	13	2	5	3	5	15	18	
	3	17	2	5	3	5	13	17	
	4	22	2	5	3	5	12	17	
	5	26	2	5	1	5	11	17	
	6	29	2	5	1	5	8	16	
81	1	9	3	4	5	3	27	21	
	2	10	2	4	4	3	26	16	
	3	13	2	4	3	3	25	12	
	4	19	2	4	3	3	25	8	
	5	27	2	4	1	2	25	7	
	6	30	2	4	1	2	24	2	
82	1	11	5	3	4	4	25	15	
	2	13	4	2	3	4	25	13	
	3	14	4	2	3	4	24	10	
	4	19	4	2	3	4	23	7	
	5	25	4	2	2	4	22	7	
	6	27	4	2	2	4	21	5	
83	1	5	3	2	4	3	27	29	
	2	10	3	2	4	3	19	26	
	3	11	3	2	4	2	16	22	
	4	12	3	2	4	2	13	20	
	5	22	3	2	4	2	11	17	
	6	24	3	2	4	1	6	17	
84	1	3	2	4	3	5	12	19	
	2	12	2	3	3	3	11	15	
	3	13	2	2	3	3	10	14	
	4	15	1	2	3	2	9	14	
	5	17	1	1	3	1	8	11	
	6	20	1	1	3	1	8	9	
85	1	1	4	4	3	4	9	20	
	2	12	4	4	2	4	8	19	
	3	15	4	4	2	4	8	17	
	4	16	4	4	2	4	7	16	
	5	19	3	4	2	4	6	16	
	6	28	3	4	2	4	6	15	
86	1	1	4	2	5	3	18	16	
	2	2	3	1	4	2	16	16	
	3	8	3	1	3	2	12	15	
	4	12	3	1	3	2	11	14	
	5	15	3	1	2	2	8	13	
	6	16	3	1	2	2	7	12	
87	1	4	4	4	4	3	13	26	
	2	5	4	4	4	3	12	25	
	3	8	4	4	4	3	12	24	
	4	17	4	4	3	2	12	23	
	5	18	4	3	3	1	12	23	
	6	30	4	3	3	1	12	22	
88	1	2	1	4	3	4	20	16	
	2	3	1	3	2	4	19	16	
	3	6	1	3	2	3	18	14	
	4	10	1	3	2	3	16	13	
	5	18	1	3	1	1	14	12	
	6	25	1	3	1	1	12	11	
89	1	2	5	5	4	5	15	19	
	2	7	4	5	3	4	14	19	
	3	16	4	5	3	4	14	18	
	4	26	3	5	2	3	14	19	
	5	27	2	5	1	3	13	18	
	6	30	2	5	1	3	13	17	
90	1	5	4	4	1	4	23	21	
	2	10	4	3	1	4	22	17	
	3	12	4	3	1	4	22	16	
	4	16	4	3	1	4	22	14	
	5	18	3	3	1	4	22	11	
	6	27	3	3	1	4	22	10	
91	1	1	4	4	4	5	21	14	
	2	3	4	3	4	5	19	12	
	3	21	4	3	4	5	14	12	
	4	23	3	3	4	5	12	11	
	5	24	3	2	4	5	8	9	
	6	25	2	2	4	5	5	9	
92	1	5	4	5	2	5	19	20	
	2	6	4	3	1	4	19	17	
	3	22	4	3	1	3	19	16	
	4	23	4	3	1	3	19	14	
	5	26	4	2	1	2	19	12	
	6	29	4	1	1	1	19	11	
93	1	14	1	4	2	3	28	30	
	2	18	1	3	1	3	28	24	
	3	22	1	3	1	3	28	16	
	4	25	1	2	1	3	28	14	
	5	27	1	2	1	2	28	9	
	6	29	1	2	1	2	28	3	
94	1	1	1	3	4	4	4	22	
	2	2	1	3	4	3	4	21	
	3	4	1	3	4	3	4	19	
	4	8	1	3	3	2	4	18	
	5	26	1	3	3	2	4	15	
	6	27	1	3	3	2	4	13	
95	1	1	3	1	2	2	24	11	
	2	3	2	1	2	2	23	10	
	3	7	2	1	2	2	21	7	
	4	16	2	1	2	2	21	6	
	5	23	1	1	1	2	20	4	
	6	24	1	1	1	2	19	3	
96	1	2	5	3	5	3	13	23	
	2	9	4	3	4	2	13	20	
	3	15	4	3	4	2	13	15	
	4	20	4	3	4	2	13	11	
	5	26	3	3	3	2	13	11	
	6	28	3	3	3	2	13	5	
97	1	1	3	5	5	3	9	14	
	2	4	3	4	4	3	9	13	
	3	22	3	4	4	3	8	9	
	4	23	3	3	4	3	8	7	
	5	25	3	3	3	2	7	7	
	6	26	3	2	3	2	7	4	
98	1	2	5	4	2	5	28	21	
	2	7	4	4	2	3	25	20	
	3	8	4	4	2	3	23	18	
	4	21	3	4	2	3	22	16	
	5	25	2	4	1	1	19	13	
	6	26	2	4	1	1	17	10	
99	1	5	5	3	2	2	21	17	
	2	6	4	3	1	2	19	17	
	3	16	4	2	1	2	16	17	
	4	18	3	2	1	2	14	16	
	5	19	3	2	1	1	14	16	
	6	21	2	1	1	1	12	16	
100	1	7	2	4	2	4	20	23	
	2	13	2	4	2	4	19	22	
	3	14	2	3	2	3	19	21	
	4	17	2	3	2	3	19	18	
	5	21	1	2	2	2	17	17	
	6	24	1	2	2	1	17	17	
101	1	10	5	4	4	2	20	5	
	2	13	4	4	3	2	18	5	
	3	17	4	4	3	2	14	5	
	4	28	4	3	3	2	13	5	
	5	29	4	3	3	2	11	5	
	6	30	4	2	3	2	8	5	
102	1	0	0	0	0	0	0	0	
************************************************************************

 RESOURCE AVAILABILITIES 
	R 1	R 2	R 3	R 4	N 1	N 2
	68	74	74	66	1315	1178

************************************************************************
